(set-logic ALL)
(declare-const a_random2_0 Int)
(declare-const a_random5_0 Int)
(declare-fun seed0_T_SELECT_19 () Bool)
(declare-fun seed0_T_db () Bool)
(declare-fun seed0_T_dc () Bool)
(declare-fun seed0_I0_325 () Int)
(declare-fun seed0_I0_329 () Int)
(declare-fun seed0_I1_325 () Int)
(declare-fun seed0_I1_329 () Int)
(declare-fun seed0_I2_325 () Int)
(declare-fun seed0_I2_329 () Int)
(declare-fun seed0_PCTEMP_LHS_85 () Int)
(declare-fun seed0_T_e0 () Int)
(declare-fun seed0_NEW_DGNode_765 () String)
(declare-fun seed0_NEW_DGNode_766 () String)
(declare-fun seed0_PCTEMP_LHS_89 () String)
(assert (and (or (str.<= seed0_PCTEMP_LHS_89 seed0_NEW_DGNode_766) (not (> (- seed0_I0_325 846) (* seed0_I1_329 seed0_I1_329)))) (or (str.<= seed0_NEW_DGNode_766 seed0_NEW_DGNode_765) (not (str.prefixof (str.++ seed0_NEW_DGNode_766 "dzVgmw74ujSJ3") (str.++ seed0_PCTEMP_LHS_89 "jU0A")))) (or (not (str.in_re seed0_NEW_DGNode_766 (str.to_re "+"))) (=> (>= (* seed0_T_e0 seed0_I0_329) (div seed0_I0_329 seed0_I1_329)) (> (+ seed0_I1_329 (- 942)) (* seed0_I0_329 seed0_I2_329)))) (or (not (str.in_re seed0_NEW_DGNode_765 (str.to_re "%"))) (and (str.contains (str.++ seed0_NEW_DGNode_766 "pwrmX5qoEC698kteu") (str.++ seed0_NEW_DGNode_765 "vqDs")) (str.prefixof (str.++ seed0_PCTEMP_LHS_89 "Q3J1S8jxT") (str.++ seed0_PCTEMP_LHS_89 "tGiq")))) (or (= seed0_T_SELECT_19 (not (= seed0_PCTEMP_LHS_85 (- 1)))) (and (distinct (div seed0_T_e0 seed0_I0_329) (* seed0_I2_329 seed0_I0_329)) (< (* seed0_I2_329 seed0_I1_325) (div seed0_T_e0 seed0_I0_325)))) (or seed0_T_dc (and (< (+ seed0_I0_329 722) (mod seed0_I2_329 seed0_PCTEMP_LHS_85)) (= (div seed0_I2_329 seed0_I2_329) (mod seed0_I2_325 seed0_I1_329)))) (or (= seed0_T_dc (not seed0_T_db)) (xor (> (- seed0_T_e0 (- 975)) (* seed0_T_e0 seed0_I2_329)) (distinct (* seed0_I0_325 seed0_I0_325) (+ seed0_T_e0 161)))) (or (= seed0_T_db (= seed0_PCTEMP_LHS_85 (- 1))) (and (>= (div seed0_I1_329 seed0_I0_325) (+ seed0_I1_329 909)) (< (+ seed0_I1_325 126) (+ seed0_I1_325 964)))) (or (<= seed0_I0_325 (- seed0_PCTEMP_LHS_85 0)) (not (> (- seed0_I0_325 872) (- seed0_I0_325 (- 931))))) (or (>= seed0_PCTEMP_LHS_85 0) (=> (str.< (str.++ seed0_NEW_DGNode_766 "NLEBH") (str.++ seed0_NEW_DGNode_765 "7gfAaCZM0FrtO")) (str.prefixof (str.++ seed0_NEW_DGNode_765 "") (str.++ seed0_NEW_DGNode_765 "3")))) (or (<= seed0_I2_325 seed0_I1_325) (not (str.contains (str.++ seed0_PCTEMP_LHS_89 "bf") (str.++ seed0_NEW_DGNode_765 "kvtB92ry")))) (or (<= seed0_PCTEMP_LHS_85 seed0_I1_325) (str.<= (str.++ seed0_NEW_DGNode_766 "zew6bcmE5") (str.++ seed0_NEW_DGNode_766 "HUt26yv"))) (or (= seed0_T_e0 (+ seed0_PCTEMP_LHS_85 1)) (xor (> (mod seed0_I0_325 seed0_I1_329) (mod seed0_I2_325 seed0_I1_329)) (= (- seed0_I1_325 798) (* seed0_I2_325 seed0_I0_325)))) (or (>= seed0_T_e0 0) (and (> (+ seed0_I1_329 596) (div seed0_T_e0 seed0_I1_325)) (< (* seed0_I0_325 seed0_I1_329) (* seed0_I2_325 seed0_I2_329)))) (or (> (+ seed0_I2_329 a_random5_0) seed0_T_e0) (str.contains (str.++ seed0_NEW_DGNode_766 "ZW3aKRDL") (str.++ seed0_NEW_DGNode_766 "GSXZubpj8"))) (or (= seed0_I2_329 seed0_I1_329) (xor (str.< (str.++ seed0_NEW_DGNode_765 "5tiDNxP") (str.++ seed0_NEW_DGNode_766 "pByQcOjDh")) (str.prefixof (str.++ seed0_NEW_DGNode_766 "") (str.++ seed0_PCTEMP_LHS_89 "XmoPJ6N9rAjgOqB")))) (or (< seed0_I2_329 (+ seed0_I1_329 a_random2_0)) (xor (> (+ seed0_I0_329 703) (* seed0_T_e0 seed0_I1_329)) (> (div seed0_PCTEMP_LHS_85 seed0_I0_325) (+ seed0_I1_325 (- 514))))) (or (>= seed0_I0_329 (- seed0_I2_329 seed0_T_e0)) (or (>= (+ seed0_T_e0 (- 123)) (- seed0_I2_329 276)) (distinct (mod seed0_I2_329 seed0_I0_325) (+ seed0_I2_325 954)))) (or (>= seed0_I0_329 (str.len seed0_PCTEMP_LHS_89)) (or (> (- seed0_I1_329 406) (* seed0_T_e0 seed0_PCTEMP_LHS_85)) (< (div seed0_I1_329 seed0_I0_325) (div seed0_I1_329 seed0_I0_325))))))
(assert (> a_random2_0 0))
(assert (> a_random5_0 0))
(check-sat)
(exit)